NAME: test5
TYPE: ATSP
COMMENT: 5 city problem (Repetto)
DIMENSION: 5
EDGE_WEIGHT_TYPE: EXPLICIT
EDGE_WEIGHT_FORMAT: FULL_MATRIX
EDGE_WEIGHT_SECTION
9999 18 12 15 29
13 9999 14 8 2
7 6 9999 4 3
21 9 14 9999 4
16 15 3 11 9999
EOF